120 150

54
55
50
60
40
53
41
50
57
52
50
55
54
41
53
47
47
43
59
57
52
44
41
52
45
57
58
46
46
55
55
52
46
41
46
40
52
47
51
49
53
58
48
50
49
42
46
59
55
46
46
60
56
52
50
55
57
52
41
55
52
56
45
46
48
53
55
60
49
53
42
43
41
57
50
55
45
40
48
59
50
55
55
42
49
44
55
55
45
58
47
47
45
45
40
43
57
46
46
47
59
52
54
57
46
51
49
47
53
44
55
52
44
52
50
46
42
46
48
56